RT is False
Default write of storage_offers_DA.csv just to have a file (but constraint should be inactive)
Reading model...
...model read.
creating competitive generators file...
...competitive generators recorded.
Loading data...
.. day-ahead data read.
Compiling instance...
...instance created.
Creating Offer Mitigation (model will solve as dispatch if TRUE)...
NOTE: storage offers will not be mitigated
...storage offer mitigation file created
Converting model to MPEC...
...converted
NOTE: initial MIP solve with only storage competitive to get feasible solution
Solving...

Welcome to IBM(R) ILOG(R) CPLEX(R) Interactive Optimizer 12.10.0.0
  with Simplex, Mixed Integer & Barrier Optimizers
5725-A06 5725-A29 5724-Y48 5724-Y49 5724-Y54 5724-Y55 5655-Y21
Copyright IBM Corp. 1988, 2019.  All Rights Reserved.

Type 'help' for a list of available commands.
Type 'help' followed by a command name for more
information on commands.

CPLEX> Logfile 'cplex.log' closed.
Logfile 'C:\Users\wenmi\Desktop\competitiveMPEC\logs\tmpii7d9yod.cplex.log' open.
CPLEX> New value for parallel optimization mode: -1
CPLEX> New value for mixed integer optimality gap tolerance: 0.05
CPLEX> New value for deterministic time limit in ticks: 100000
CPLEX> Problem 'C:\Users\wenmi\Desktop\competitiveMPEC\logs\tmptte3w5np.pyomo.lp' read.
Read time = 0.14 sec. (14.50 ticks)
CPLEX> Problem name         : C:\Users\wenmi\Desktop\competitiveMPEC\logs\tmptte3w5np.pyomo.lp
Objective sense      : Maximize
Variables            :   53803  [Nneg: 1,  Box: 21998,  Free: 4464,
                                 Binary: 27340]
Objective nonzeros   :    9101
Linear constraints   :  123205  [Less: 41346,  Greater: 59096,  Equal: 22763]
  Nonzeros           :  289306
  RHS nonzeros       :   67490

Variables            : Min LB: -5000.000        Max UB: 1000000.       
Objective nonzeros   : Min   : 0.1000000        Max   : 2500.000       
Linear constraints   :
  Nonzeros           : Min   : 0.1000000        Max   : 1000000.       
  RHS nonzeros       : Min   : 0.1000000        Max   : 1000000.       
CPLEX> Version identifier: 12.10.0.0 | 2019-11-26 | 843d4de2ae
CPXPARAM_Parallel                                -1
CPXPARAM_DetTimeLimit                            100000
CPXPARAM_MIP_Tolerances_MIPGap                   0.050000000000000003
Tried aggregator 3 times.
MIP Presolve eliminated 88672 rows and 18994 columns.
MIP Presolve added 3398 rows and 0 columns.
MIP Presolve modified 24846 coefficients.
Aggregator did 13002 substitutions.
Reduced MIP has 24929 rows, 21251 columns, and 68601 nonzeros.
Reduced MIP has 8404 binaries, 0 generals, 0 SOSs, and 0 indicators.
Presolve time = 0.16 sec. (165.10 ticks)
Probing fixed 377 vars, tightened 3918 bounds.
Probing time = 0.03 sec. (17.84 ticks)
Tried aggregator 2 times.
Detecting symmetries...
MIP Presolve eliminated 854 rows and 754 columns.
MIP Presolve modified 3153 coefficients.
Aggregator did 24 substitutions.
Reduced MIP has 24051 rows, 20473 columns, and 66067 nonzeros.
Reduced MIP has 8027 binaries, 0 generals, 0 SOSs, and 0 indicators.
Presolve time = 0.08 sec. (90.15 ticks)
Probing fixed 0 vars, tightened 318 bounds.
Probing time = 0.08 sec. (21.55 ticks)
Clique table members: 44229.
MIP emphasis: balance optimality and feasibility.
MIP search method: dynamic search.
Parallel mode: opportunistic, using up to 16 threads.
Root relaxation solution time = 0.24 sec. (551.47 ticks)

        Nodes                                         Cuts/
   Node  Left     Objective  IInf  Best Integer    Best Bound    ItCnt     Gap

      0     0     2389.2280    54                   2389.2280     4832         
      0     0     2389.2269    54                     Cuts: 8     4837         
      0     0     2389.2269    54                    Cuts: 23     4844         
      0     0     2352.4060    54                    Cuts: 36     4859         
*     0+    0                         1142.7446     2352.4060           105.86%
      0     0     2052.4099    54     1142.7446      Cuts: 20     4882   39.30%
*     0+    0                         1476.0486     1591.8717             7.85%
      0     0     2052.4099    54     1476.0486    MIRcuts: 1     4884    7.85%
      0     0        cutoff           1476.0486     1476.0486     4884    0.00%
Elapsed time = 2.06 sec. (2123.28 ticks, tree = 0.01 MB, solutions = 2)

Flow cuts applied:  18
Mixed integer rounding cuts applied:  7
Gomory fractional cuts applied:  1

Root node processing (before b&c):
  Real time             =    2.06 sec. (2125.58 ticks)
Parallel b&c, 16 threads:
  Real time             =    0.00 sec. (0.00 ticks)
  Sync time (average)   =    0.00 sec.
  Wait time (average)   =    0.00 sec.
                          ------------
Total (root+branch&cut) =    2.06 sec. (2125.58 ticks)

Solution pool: 2 solutions saved.

MIP - Integer optimal solution:  Objective =  1.4760485762e+03
Solution time =    2.06 sec.  Iterations = 4884  Nodes = 0
Deterministic time = 2125.73 ticks  (1030.91 ticks/sec)

CPLEX> Incumbent solution written to file 'C:\Users\wenmi\Desktop\competitiveMPEC\logs\tmp446plxx0.cplex.sol'.
CPLEX> NOTE: no warmstart specified for MIP iteration, default behavior is true
NOTE: resolving with all competitive generators using storage-only solution to warmstart
Solving...

Welcome to IBM(R) ILOG(R) CPLEX(R) Interactive Optimizer 12.10.0.0
  with Simplex, Mixed Integer & Barrier Optimizers
5725-A06 5725-A29 5724-Y48 5724-Y49 5724-Y54 5724-Y55 5655-Y21
Copyright IBM Corp. 1988, 2019.  All Rights Reserved.

Type 'help' for a list of available commands.
Type 'help' followed by a command name for more
information on commands.

CPLEX> Logfile 'cplex.log' closed.
Logfile 'C:\Users\wenmi\Desktop\competitiveMPEC\logs\tmph87vgbur.cplex.log' open.
CPLEX> New value for parallel optimization mode: -1
CPLEX> New value for mixed integer optimality gap tolerance: 0.05
CPLEX> New value for deterministic time limit in ticks: 100000
CPLEX> Problem 'C:\Users\wenmi\Desktop\competitiveMPEC\logs\tmp_hfhweow.pyomo.lp' read.
Read time = 0.14 sec. (14.52 ticks)
CPLEX> MIP start file 'C:\Users\wenmi\Desktop\competitiveMPEC\logs\tmpou73d0rx.cplex.mst' read.
CPLEX> Problem name         : C:\Users\wenmi\Desktop\competitiveMPEC\logs\tmp_hfhweow.pyomo.lp
Objective sense      : Maximize
Variables            :   54523  [Nneg: 1,  Box: 22718,  Free: 4464,
                                 Binary: 27340]
Objective nonzeros   :    9797
Linear constraints   :  123205  [Less: 41346,  Greater: 59096,  Equal: 22763]
  Nonzeros           :  289306
  RHS nonzeros       :   67490

Variables            : Min LB: -5000.000        Max UB: 1000000.       
Objective nonzeros   : Min   : 0.1000000        Max   : 2500.000       
Linear constraints   :
  Nonzeros           : Min   : 0.1000000        Max   : 1000000.       
  RHS nonzeros       : Min   : 0.1000000        Max   : 1000000.       
CPLEX> Version identifier: 12.10.0.0 | 2019-11-26 | 843d4de2ae
CPXPARAM_Parallel                                -1
CPXPARAM_DetTimeLimit                            100000
CPXPARAM_MIP_Tolerances_MIPGap                   0.050000000000000003
1 of 1 MIP starts provided solutions.
MIP start 'm1' defined initial solution with objective 1476.0486.
Tried aggregator 3 times.
MIP Presolve eliminated 88672 rows and 19714 columns.
MIP Presolve added 3398 rows and 0 columns.
MIP Presolve modified 24846 coefficients.
Aggregator did 13002 substitutions.
Reduced MIP has 24929 rows, 21251 columns, and 68601 nonzeros.
Reduced MIP has 8404 binaries, 0 generals, 0 SOSs, and 0 indicators.
Presolve time = 0.16 sec. (165.45 ticks)
Probing fixed 377 vars, tightened 3918 bounds.
Probing time = 0.05 sec. (17.84 ticks)
Tried aggregator 2 times.
Detecting symmetries...
MIP Presolve eliminated 854 rows and 754 columns.
MIP Presolve modified 3153 coefficients.
Aggregator did 24 substitutions.
Reduced MIP has 24051 rows, 20473 columns, and 66067 nonzeros.
Reduced MIP has 8027 binaries, 0 generals, 0 SOSs, and 0 indicators.
Presolve time = 0.08 sec. (90.15 ticks)
Probing fixed 0 vars, tightened 318 bounds.
Probing time = 0.08 sec. (21.55 ticks)
Clique table members: 44229.
MIP emphasis: balance optimality and feasibility.
MIP search method: dynamic search.
Parallel mode: opportunistic, using up to 16 threads.
Root relaxation solution time = 0.25 sec. (571.28 ticks)

        Nodes                                         Cuts/
   Node  Left     Objective  IInf  Best Integer    Best Bound    ItCnt     Gap

*     0+    0                         1476.0486   6.43752e+07              --- 
      0     0   122619.3313   185     1476.0486   122619.3313     5245     --- 
      0     0   115507.5475   185     1476.0486     Cuts: 439     5548     --- 
      0     0   115056.0958   185     1476.0486     Cuts: 187     5653     --- 
      0     0   115055.1998   185     1476.0486      Cuts: 45     5689     --- 
      0     0   115050.6058   185     1476.0486      Cuts: 22     5700     --- 
      0     0   114176.0049   185     1476.0486     Cuts: 167     5783     --- 
      0     0   113504.3625   185     1476.0486     Cuts: 119     5828     --- 
      0     0   113504.3625   185     1476.0486      Cuts: 32     5838     --- 
*     0+    0                         1476.0487   113504.3625              --- 
      0     2   113504.3625   131     1476.0487   113504.3625     5838     --- 
Elapsed time = 3.67 sec. (3005.66 ticks, tree = 0.02 MB, solutions = 2)
    195    76    57699.9355    53     1476.0487   109506.3024     8227     --- 
    394   187    62659.6690    65     1476.0487   109390.3845    10974     --- 
    649   324    36865.1321    36     1476.0487   109347.1739    15440     --- 
    954   421    19371.2682    25     1476.0487   103869.3673    18537     --- 
   1328   630     3347.7145    17     1476.0487   103869.3673    22142     --- 
   1727   771    infeasible           1476.0487    83849.3516    25537     --- 
   2030  1059     3004.0479    27     1476.0487    78891.5715    31230     --- 
   2352  1183    18610.1019    31     1476.0487    76169.4707    34541     --- 
   2722  1337     6592.2342    31     1476.0487    74382.8375    38465     --- 
   4008  2810     3035.9636    18     1476.0487    67277.0582    71247     --- 
Elapsed time = 16.53 sec. (6109.61 ticks, tree = 24.83 MB, solutions = 2)

Performing restart 1

Repeating presolve.
Tried aggregator 4 times.
MIP Presolve eliminated 766 rows and 702 columns.
MIP Presolve modified 44350 coefficients.
Aggregator did 229 substitutions.
Reduced MIP has 23056 rows, 19542 columns, and 62753 nonzeros.
Reduced MIP has 7724 binaries, 0 generals, 0 SOSs, and 0 indicators.
Presolve time = 0.11 sec. (116.07 ticks)
Tried aggregator 3 times.
MIP Presolve eliminated 465 rows and 378 columns.
MIP Presolve modified 11916 coefficients.
Aggregator did 9 substitutions.
Reduced MIP has 22582 rows, 19155 columns, and 61470 nonzeros.
Reduced MIP has 7535 binaries, 0 generals, 0 SOSs, and 0 indicators.
Presolve time = 0.05 sec. (52.99 ticks)
Tried aggregator 2 times.
MIP Presolve modified 10540 coefficients.
Aggregator did 1 substitutions.
Reduced MIP has 22581 rows, 19154 columns, and 61467 nonzeros.
Reduced MIP has 7535 binaries, 0 generals, 0 SOSs, and 0 indicators.
Presolve time = 0.05 sec. (52.84 ticks)
Represolve time = 0.61 sec. (474.09 ticks)
   4679     0    68643.4911   123     1476.0487     Cuts: 178    88592     --- 
   4679     0    68643.4911   123     1476.0487      Cuts: 31    88626     --- 
   4679     0    68643.4911   123     1476.0487      Cuts: 62    88691     --- 
   4679     0    68643.4911   123     1476.0487     Cuts: 135    88749     --- 
   4679     0    68643.4911   123     1476.0487      Cuts: 87    88799     --- 
   4679     0    68593.3711   123     1476.0487      Cuts: 62    88857     --- 
   4679     1        cutoff           1476.0487    49304.4861    88867     --- 
   4966    21        cutoff           1476.0487     2277.9961    92577   54.33%

Implied bound cuts applied:  2
Flow cuts applied:  51
Mixed integer rounding cuts applied:  7
Gomory fractional cuts applied:  2

Root node processing (before b&c):
  Real time             =    3.09 sec. (2950.77 ticks)
Parallel b&c, 16 threads:
  Real time             =   21.30 sec. (9274.93 ticks)
  Sync time (average)   =    1.62 sec.
  Wait time (average)   =    0.02 sec.
                          ------------
Total (root+branch&cut) =   24.39 sec. (12225.70 ticks)

Solution pool: 2 solutions saved.

MIP - Integer optimal solution:  Objective =  1.4760486501e+03
Solution time =   24.39 sec.  Iterations = 94286  Nodes = 5054
Deterministic time = 12225.86 ticks  (501.24 ticks/sec)

CPLEX> Incumbent solution written to file 'C:\Users\wenmi\Desktop\competitiveMPEC\logs\tmphn39o5w5.cplex.sol'.
CPLEX> Exporting results... 
